NAME : 15.txt
TYPE : TSP
DIMENSION : 20
EDGE_WEIGHT_TYPE : EUC_2D
NODE_COORD_SECTION
1 0 0
2 -8 7
3 -10 4
4 -6 -1
5 -5 -8
6 4 10
7 0 -1
8 -8 -1
9 -7 -10
10 2 8
11 10 1
12 5 4
13 -8 -2
14 -1 5
15 6 -5
16 -7 -3
17 -5 -4
18 9 -5
19 0 0
20 -9 -4
EOF
